language Essence 1.3

letting class be function(1 --> 5, 2 --> 5, 3 --> 4, 4 --> 1, 5 --> 3, 6 --> 2)
letting deck_length be 78
letting deck_width be 79
letting length be function(1 --> 40, 2 --> 21, 3 --> 34, 4 --> 70, 5 --> 77, 6 --> 35)
letting n_classes be 5
letting n_containers be 6
letting separation be function({1, 2} --> 38, {3, 5} --> 16, {4, 5} --> 79)
letting width be function(1 --> 39, 2 --> 6, 3 --> 22, 4 --> 14, 5 --> 3, 6 --> 2)
